22
3 58 5 8 
2 28 19 
2 43 55 
2 31 25 
3 59 12 20 
2 34 16 
3 4 30 35 
3 39 1 2 
3 3 37 24 
3 18 46 15 
3 40 48 47 
3 51 52 33 
3 50 22 29 
3 36 9 41 
3 60 6 53 
3 27 57 45 
3 26 54 49 
3 32 38 17 
3 13 44 23 
2 10 42 
3 7 21 14 
2 56 11 
